# Escenario generado automaticamente: adr_bajo

param alpha := 0.5;
param fecha_hoy := 45984;
param s := 100;

set I := P1 P2 P3 P4 P5 P6 P7 P8 P9 P10 P11 P12 P13 P14 P15 P16 P17 P18 P19 P20 P21 P22 P23 P24 P25 P26 P27 P28 P29 P30 P31 P32 P33 P34 P35 P36 P37 P38 P39 P40 P41 P42 P43 P44 P45 P46 P47 P48 P49 P50 P51 P52 P53 P54 P55 P56 P57 P58 P59 P60 P61 P62 P63 P64 P65 P66 P67 P68 P69 P70 P71 P72 P73 P74 P75 P76 P77 P78 P79 P80 P81 P82 P83 P84 P85 P86 P87 P88 P89 P90 P91 P92 P93 P94 P95 P96 P97 P98 P99 P100 P101 P102 P103 P104 P105 P106 P107 P108 P109 P110 P111 P112 P113 P114 P115 P116 P117 P118 P119 P120 P121 P122 P123 P124 P125 P126 P127 P128 P129 P130 P131 P132 P133 P134 P135 P136 P137 P138 P139 P140 P141 P142 P143 P144 P145 P146 P147 P148 P149 P150 P151 P152 P153 P154 P155 P156 P157 P158 P159 P160 P161 P162 P163 P164 P165 P166 P167 P168 P169 P170 P171 P172 P173 P174 P175 P176 P177 P178 P179 P180 P181 P182 P183 P184 P185 P186 P187 P188 P189 P190 P191 P192 P193 P194 P195 P196 P197 P198 P199 P200;
set C := C1 C2 C3 C4 C5 C6 C7 C8 C9 C10 C11 C12 C13 C14 C15;
set J := T1 T2 T3 T4 T5 T6 T7 T8 T9 T10 T11 T12 T13 T14 T15;

param dist_c :=
  'C1' 57
  'C2' 41
  'C3' 67
  'C4' 36
  'C5' 53
  'C6' 65
  'C7' 47
  'C8' 97
  'C9' 30
  'C10' 47
  'C11' 95
  'C12' 9
  'C13' 21
  'C14' 24
  'C15' 13
;

param F :=
  'T1' 550
  'T2' 700
  'T3' 550
  'T4' 550
  'T5' 700
  'T6' 700
  'T7' 550
  'T8' 550
  'T9' 700
  'T10' 350
  'T11' 350
  'T12' 350
  'T13' 550
  'T14' 350
  'T15' 350
;
param ADRmax :=
  'T1' 0
  'T2' 5
  'T3' 0
  'T4' 0
  'T5' 5
  'T6' 5
  'T7' 0
  'T8' 0
  'T9' 5
  'T10' 0
  'T11' 0
  'T12' 0
  'T13' 0
  'T14' 0
  'T15' 0
;
param W :=
  'T1' 2500
  'T2' 3500
  'T3' 2500
  'T4' 2500
  'T5' 3500
  'T6' 3500
  'T7' 2500
  'T8' 2500
  'T9' 3500
  'T10' 1000
  'T11' 1000
  'T12' 1000
  'T13' 2500
  'T14' 1000
  'T15' 1000
;
param V :=
  'T1' 18
  'T2' 25
  'T3' 18
  'T4' 18
  'T5' 25
  'T6' 25
  'T7' 18
  'T8' 18
  'T9' 25
  'T10' 10
  'T11' 10
  'T12' 10
  'T13' 18
  'T14' 10
  'T15' 10
;
param Pmax :=
  'T1' 8
  'T2' 10
  'T3' 7
  'T4' 6
  'T5' 10
  'T6' 9
  'T7' 9
  'T8' 7
  'T9' 6
  'T10' 6
  'T11' 5
  'T12' 4
  'T13' 10
  'T14' 10
  'T15' 9
;

param pes :=
  'P1' 233
  'P2' 269
  'P3' 116
  'P4' 212
  'P5' 262
  'P6' 277
  'P7' 142
  'P8' 127
  'P9' 281
  'P10' 166
  'P11' 290
  'P12' 120
  'P13' 120
  'P14' 178
  'P15' 170
  'P16' 155
  'P17' 195
  'P18' 297
  'P19' 227
  'P20' 142
  'P21' 299
  'P22' 154
  'P23' 265
  'P24' 185
  'P25' 111
  'P26' 270
  'P27' 118
  'P28' 125
  'P29' 141
  'P30' 164
  'P31' 112
  'P32' 299
  'P33' 122
  'P34' 300
  'P35' 290
  'P36' 109
  'P37' 212
  'P38' 259
  'P39' 192
  'P40' 236
  'P41' 207
  'P42' 275
  'P43' 136
  'P44' 145
  'P45' 257
  'P46' 203
  'P47' 283
  'P48' 199
  'P49' 227
  'P50' 254
  'P51' 241
  'P52' 199
  'P53' 290
  'P54' 229
  'P55' 191
  'P56' 155
  'P57' 175
  'P58' 288
  'P59' 115
  'P60' 117
  'P61' 259
  'P62' 211
  'P63' 103
  'P64' 248
  'P65' 297
  'P66' 130
  'P67' 248
  'P68' 210
  'P69' 213
  'P70' 186
  'P71' 159
  'P72' 145
  'P73' 142
  'P74' 203
  'P75' 146
  'P76' 184
  'P77' 150
  'P78' 124
  'P79' 221
  'P80' 272
  'P81' 258
  'P82' 256
  'P83' 180
  'P84' 154
  'P85' 151
  'P86' 214
  'P87' 274
  'P88' 105
  'P89' 250
  'P90' 153
  'P91' 219
  'P92' 247
  'P93' 165
  'P94' 131
  'P95' 239
  'P96' 281
  'P97' 197
  'P98' 222
  'P99' 289
  'P100' 240
  'P101' 142
  'P102' 228
  'P103' 199
  'P104' 200
  'P105' 119
  'P106' 210
  'P107' 260
  'P108' 250
  'P109' 294
  'P110' 289
  'P111' 157
  'P112' 136
  'P113' 207
  'P114' 151
  'P115' 190
  'P116' 280
  'P117' 101
  'P118' 173
  'P119' 117
  'P120' 161
  'P121' 273
  'P122' 119
  'P123' 232
  'P124' 265
  'P125' 101
  'P126' 249
  'P127' 160
  'P128' 239
  'P129' 225
  'P130' 173
  'P131' 271
  'P132' 154
  'P133' 105
  'P134' 191
  'P135' 280
  'P136' 262
  'P137' 249
  'P138' 242
  'P139' 238
  'P140' 202
  'P141' 201
  'P142' 256
  'P143' 108
  'P144' 168
  'P145' 232
  'P146' 115
  'P147' 216
  'P148' 167
  'P149' 138
  'P150' 289
  'P151' 103
  'P152' 130
  'P153' 293
  'P154' 217
  'P155' 105
  'P156' 272
  'P157' 217
  'P158' 173
  'P159' 202
  'P160' 227
  'P161' 259
  'P162' 122
  'P163' 259
  'P164' 142
  'P165' 201
  'P166' 201
  'P167' 274
  'P168' 277
  'P169' 233
  'P170' 197
  'P171' 105
  'P172' 109
  'P173' 150
  'P174' 257
  'P175' 200
  'P176' 293
  'P177' 276
  'P178' 228
  'P179' 148
  'P180' 281
  'P181' 204
  'P182' 106
  'P183' 138
  'P184' 292
  'P185' 198
  'P186' 177
  'P187' 180
  'P188' 148
  'P189' 140
  'P190' 149
  'P191' 268
  'P192' 154
  'P193' 121
  'P194' 290
  'P195' 210
  'P196' 198
  'P197' 284
  'P198' 299
  'P199' 216
  'P200' 232
;
param vol :=
  'P1' 1
  'P2' 3
  'P3' 3
  'P4' 2
  'P5' 2
  'P6' 3
  'P7' 1
  'P8' 2
  'P9' 2
  'P10' 1
  'P11' 1
  'P12' 3
  'P13' 3
  'P14' 2
  'P15' 2
  'P16' 3
  'P17' 1
  'P18' 1
  'P19' 3
  'P20' 2
  'P21' 3
  'P22' 3
  'P23' 3
  'P24' 3
  'P25' 3
  'P26' 1
  'P27' 2
  'P28' 2
  'P29' 1
  'P30' 3
  'P31' 2
  'P32' 3
  'P33' 3
  'P34' 3
  'P35' 2
  'P36' 3
  'P37' 2
  'P38' 1
  'P39' 2
  'P40' 1
  'P41' 2
  'P42' 3
  'P43' 1
  'P44' 3
  'P45' 2
  'P46' 1
  'P47' 2
  'P48' 3
  'P49' 3
  'P50' 3
  'P51' 2
  'P52' 3
  'P53' 1
  'P54' 3
  'P55' 2
  'P56' 3
  'P57' 1
  'P58' 2
  'P59' 1
  'P60' 3
  'P61' 2
  'P62' 3
  'P63' 2
  'P64' 3
  'P65' 1
  'P66' 3
  'P67' 1
  'P68' 1
  'P69' 3
  'P70' 2
  'P71' 1
  'P72' 2
  'P73' 1
  'P74' 2
  'P75' 1
  'P76' 3
  'P77' 1
  'P78' 2
  'P79' 2
  'P80' 2
  'P81' 1
  'P82' 3
  'P83' 2
  'P84' 1
  'P85' 2
  'P86' 3
  'P87' 1
  'P88' 2
  'P89' 3
  'P90' 1
  'P91' 1
  'P92' 3
  'P93' 2
  'P94' 2
  'P95' 1
  'P96' 2
  'P97' 2
  'P98' 1
  'P99' 2
  'P100' 1
  'P101' 2
  'P102' 3
  'P103' 3
  'P104' 3
  'P105' 2
  'P106' 1
  'P107' 2
  'P108' 2
  'P109' 3
  'P110' 3
  'P111' 3
  'P112' 3
  'P113' 3
  'P114' 2
  'P115' 2
  'P116' 1
  'P117' 1
  'P118' 2
  'P119' 3
  'P120' 1
  'P121' 2
  'P122' 2
  'P123' 2
  'P124' 1
  'P125' 2
  'P126' 1
  'P127' 3
  'P128' 3
  'P129' 1
  'P130' 3
  'P131' 1
  'P132' 3
  'P133' 3
  'P134' 1
  'P135' 2
  'P136' 1
  'P137' 2
  'P138' 3
  'P139' 2
  'P140' 2
  'P141' 3
  'P142' 1
  'P143' 2
  'P144' 3
  'P145' 2
  'P146' 3
  'P147' 2
  'P148' 3
  'P149' 3
  'P150' 3
  'P151' 3
  'P152' 2
  'P153' 2
  'P154' 2
  'P155' 2
  'P156' 1
  'P157' 2
  'P158' 1
  'P159' 1
  'P160' 1
  'P161' 1
  'P162' 1
  'P163' 2
  'P164' 1
  'P165' 3
  'P166' 2
  'P167' 2
  'P168' 3
  'P169' 1
  'P170' 3
  'P171' 1
  'P172' 2
  'P173' 3
  'P174' 3
  'P175' 1
  'P176' 3
  'P177' 3
  'P178' 3
  'P179' 1
  'P180' 3
  'P181' 3
  'P182' 2
  'P183' 3
  'P184' 2
  'P185' 2
  'P186' 1
  'P187' 1
  'P188' 1
  'P189' 1
  'P190' 3
  'P191' 3
  'P192' 3
  'P193' 2
  'P194' 1
  'P195' 1
  'P196' 3
  'P197' 2
  'P198' 1
  'P199' 2
  'P200' 1
;
param adr :=
  'P1' 0
  'P2' 1
  'P3' 1
  'P4' 0
  'P5' 0
  'P6' 0
  'P7' 0
  'P8' 1
  'P9' 0
  'P10' 0
  'P11' 1
  'P12' 0
  'P13' 0
  'P14' 0
  'P15' 0
  'P16' 1
  'P17' 0
  'P18' 1
  'P19' 0
  'P20' 0
  'P21' 1
  'P22' 0
  'P23' 1
  'P24' 1
  'P25' 0
  'P26' 1
  'P27' 1
  'P28' 1
  'P29' 1
  'P30' 0
  'P31' 0
  'P32' 1
  'P33' 0
  'P34' 1
  'P35' 0
  'P36' 1
  'P37' 1
  'P38' 0
  'P39' 1
  'P40' 0
  'P41' 0
  'P42' 0
  'P43' 1
  'P44' 0
  'P45' 0
  'P46' 0
  'P47' 0
  'P48' 0
  'P49' 0
  'P50' 0
  'P51' 0
  'P52' 0
  'P53' 0
  'P54' 0
  'P55' 0
  'P56' 0
  'P57' 1
  'P58' 0
  'P59' 1
  'P60' 0
  'P61' 1
  'P62' 1
  'P63' 0
  'P64' 0
  'P65' 0
  'P66' 0
  'P67' 1
  'P68' 0
  'P69' 0
  'P70' 0
  'P71' 0
  'P72' 0
  'P73' 0
  'P74' 0
  'P75' 0
  'P76' 1
  'P77' 0
  'P78' 0
  'P79' 0
  'P80' 0
  'P81' 0
  'P82' 0
  'P83' 0
  'P84' 0
  'P85' 1
  'P86' 0
  'P87' 1
  'P88' 1
  'P89' 1
  'P90' 0
  'P91' 0
  'P92' 0
  'P93' 0
  'P94' 0
  'P95' 1
  'P96' 0
  'P97' 0
  'P98' 0
  'P99' 1
  'P100' 0
  'P101' 1
  'P102' 0
  'P103' 0
  'P104' 0
  'P105' 0
  'P106' 0
  'P107' 0
  'P108' 0
  'P109' 1
  'P110' 0
  'P111' 0
  'P112' 0
  'P113' 1
  'P114' 0
  'P115' 0
  'P116' 1
  'P117' 0
  'P118' 0
  'P119' 0
  'P120' 0
  'P121' 0
  'P122' 0
  'P123' 0
  'P124' 0
  'P125' 0
  'P126' 0
  'P127' 1
  'P128' 0
  'P129' 0
  'P130' 0
  'P131' 0
  'P132' 0
  'P133' 1
  'P134' 0
  'P135' 0
  'P136' 0
  'P137' 1
  'P138' 0
  'P139' 0
  'P140' 0
  'P141' 0
  'P142' 0
  'P143' 1
  'P144' 0
  'P145' 0
  'P146' 1
  'P147' 0
  'P148' 0
  'P149' 1
  'P150' 1
  'P151' 0
  'P152' 0
  'P153' 1
  'P154' 0
  'P155' 1
  'P156' 0
  'P157' 0
  'P158' 0
  'P159' 1
  'P160' 0
  'P161' 0
  'P162' 0
  'P163' 1
  'P164' 1
  'P165' 0
  'P166' 0
  'P167' 0
  'P168' 0
  'P169' 0
  'P170' 0
  'P171' 1
  'P172' 0
  'P173' 0
  'P174' 0
  'P175' 0
  'P176' 0
  'P177' 0
  'P178' 1
  'P179' 0
  'P180' 1
  'P181' 0
  'P182' 1
  'P183' 0
  'P184' 0
  'P185' 0
  'P186' 1
  'P187' 1
  'P188' 0
  'P189' 1
  'P190' 0
  'P191' 1
  'P192' 0
  'P193' 0
  'P194' 0
  'P195' 0
  'P196' 0
  'P197' 1
  'P198' 0
  'P199' 1
  'P200' 1
;
param t :=
  'P1' 350
  'P2' 350
  'P3' 350
  'P4' 350
  'P5' 350
  'P6' 350
  'P7' 350
  'P8' 350
  'P9' 350
  'P10' 350
  'P11' 350
  'P12' 350
  'P13' 350
  'P14' 350
  'P15' 350
  'P16' 350
  'P17' 350
  'P18' 350
  'P19' 350
  'P20' 350
  'P21' 350
  'P22' 350
  'P23' 350
  'P24' 350
  'P25' 350
  'P26' 350
  'P27' 350
  'P28' 350
  'P29' 350
  'P30' 350
  'P31' 350
  'P32' 350
  'P33' 350
  'P34' 350
  'P35' 350
  'P36' 350
  'P37' 350
  'P38' 350
  'P39' 350
  'P40' 350
  'P41' 350
  'P42' 350
  'P43' 350
  'P44' 350
  'P45' 350
  'P46' 350
  'P47' 350
  'P48' 350
  'P49' 350
  'P50' 350
  'P51' 350
  'P52' 350
  'P53' 350
  'P54' 350
  'P55' 350
  'P56' 350
  'P57' 350
  'P58' 350
  'P59' 350
  'P60' 350
  'P61' 350
  'P62' 350
  'P63' 350
  'P64' 350
  'P65' 350
  'P66' 350
  'P67' 350
  'P68' 350
  'P69' 350
  'P70' 350
  'P71' 350
  'P72' 350
  'P73' 350
  'P74' 350
  'P75' 350
  'P76' 350
  'P77' 350
  'P78' 350
  'P79' 350
  'P80' 350
  'P81' 350
  'P82' 350
  'P83' 350
  'P84' 350
  'P85' 350
  'P86' 350
  'P87' 350
  'P88' 350
  'P89' 350
  'P90' 350
  'P91' 350
  'P92' 350
  'P93' 350
  'P94' 350
  'P95' 350
  'P96' 350
  'P97' 350
  'P98' 350
  'P99' 350
  'P100' 350
  'P101' 350
  'P102' 350
  'P103' 350
  'P104' 350
  'P105' 350
  'P106' 350
  'P107' 350
  'P108' 350
  'P109' 350
  'P110' 350
  'P111' 350
  'P112' 350
  'P113' 350
  'P114' 350
  'P115' 350
  'P116' 350
  'P117' 350
  'P118' 350
  'P119' 350
  'P120' 350
  'P121' 350
  'P122' 350
  'P123' 350
  'P124' 350
  'P125' 350
  'P126' 350
  'P127' 350
  'P128' 350
  'P129' 350
  'P130' 350
  'P131' 350
  'P132' 350
  'P133' 350
  'P134' 350
  'P135' 350
  'P136' 350
  'P137' 350
  'P138' 350
  'P139' 350
  'P140' 350
  'P141' 350
  'P142' 350
  'P143' 350
  'P144' 350
  'P145' 350
  'P146' 350
  'P147' 350
  'P148' 350
  'P149' 350
  'P150' 350
  'P151' 350
  'P152' 350
  'P153' 350
  'P154' 350
  'P155' 350
  'P156' 350
  'P157' 350
  'P158' 350
  'P159' 350
  'P160' 350
  'P161' 350
  'P162' 350
  'P163' 350
  'P164' 350
  'P165' 350
  'P166' 350
  'P167' 350
  'P168' 350
  'P169' 350
  'P170' 350
  'P171' 350
  'P172' 350
  'P173' 350
  'P174' 350
  'P175' 350
  'P176' 350
  'P177' 350
  'P178' 350
  'P179' 350
  'P180' 350
  'P181' 350
  'P182' 350
  'P183' 350
  'P184' 350
  'P185' 350
  'P186' 350
  'P187' 350
  'P188' 350
  'P189' 350
  'P190' 350
  'P191' 350
  'P192' 350
  'P193' 350
  'P194' 350
  'P195' 350
  'P196' 350
  'P197' 350
  'P198' 350
  'P199' 350
  'P200' 350
;
param fecha :=
  'P1' 45984
  'P2' 45985
  'P3' 45984
  'P4' 45984
  'P5' 45984
  'P6' 45984
  'P7' 45984
  'P8' 45984
  'P9' 45984
  'P10' 45984
  'P11' 45984
  'P12' 45984
  'P13' 45984
  'P14' 45984
  'P15' 45984
  'P16' 45984
  'P17' 45984
  'P18' 45984
  'P19' 45985
  'P20' 45984
  'P21' 45985
  'P22' 45984
  'P23' 45984
  'P24' 45984
  'P25' 45985
  'P26' 45984
  'P27' 45985
  'P28' 45984
  'P29' 45984
  'P30' 45985
  'P31' 45984
  'P32' 45984
  'P33' 45984
  'P34' 45984
  'P35' 45984
  'P36' 45985
  'P37' 45984
  'P38' 45985
  'P39' 45984
  'P40' 45984
  'P41' 45984
  'P42' 45985
  'P43' 45984
  'P44' 45984
  'P45' 45984
  'P46' 45984
  'P47' 45985
  'P48' 45984
  'P49' 45984
  'P50' 45984
  'P51' 45984
  'P52' 45984
  'P53' 45984
  'P54' 45984
  'P55' 45984
  'P56' 45984
  'P57' 45984
  'P58' 45984
  'P59' 45985
  'P60' 45985
  'P61' 45984
  'P62' 45984
  'P63' 45984
  'P64' 45985
  'P65' 45984
  'P66' 45984
  'P67' 45985
  'P68' 45984
  'P69' 45984
  'P70' 45984
  'P71' 45984
  'P72' 45984
  'P73' 45984
  'P74' 45984
  'P75' 45984
  'P76' 45984
  'P77' 45984
  'P78' 45985
  'P79' 45984
  'P80' 45984
  'P81' 45984
  'P82' 45984
  'P83' 45984
  'P84' 45985
  'P85' 45984
  'P86' 45984
  'P87' 45984
  'P88' 45984
  'P89' 45984
  'P90' 45985
  'P91' 45985
  'P92' 45984
  'P93' 45985
  'P94' 45985
  'P95' 45984
  'P96' 45985
  'P97' 45985
  'P98' 45984
  'P99' 45984
  'P100' 45985
  'P101' 45984
  'P102' 45984
  'P103' 45984
  'P104' 45985
  'P105' 45984
  'P106' 45984
  'P107' 45985
  'P108' 45984
  'P109' 45984
  'P110' 45985
  'P111' 45985
  'P112' 45984
  'P113' 45984
  'P114' 45984
  'P115' 45984
  'P116' 45985
  'P117' 45984
  'P118' 45984
  'P119' 45984
  'P120' 45985
  'P121' 45984
  'P122' 45985
  'P123' 45984
  'P124' 45984
  'P125' 45984
  'P126' 45984
  'P127' 45984
  'P128' 45984
  'P129' 45984
  'P130' 45984
  'P131' 45984
  'P132' 45985
  'P133' 45984
  'P134' 45985
  'P135' 45984
  'P136' 45984
  'P137' 45984
  'P138' 45984
  'P139' 45984
  'P140' 45984
  'P141' 45985
  'P142' 45985
  'P143' 45985
  'P144' 45984
  'P145' 45984
  'P146' 45984
  'P147' 45984
  'P148' 45984
  'P149' 45984
  'P150' 45984
  'P151' 45984
  'P152' 45984
  'P153' 45984
  'P154' 45984
  'P155' 45984
  'P156' 45984
  'P157' 45985
  'P158' 45984
  'P159' 45985
  'P160' 45985
  'P161' 45984
  'P162' 45985
  'P163' 45985
  'P164' 45984
  'P165' 45984
  'P166' 45984
  'P167' 45984
  'P168' 45984
  'P169' 45984
  'P170' 45984
  'P171' 45984
  'P172' 45984
  'P173' 45984
  'P174' 45984
  'P175' 45985
  'P176' 45985
  'P177' 45984
  'P178' 45984
  'P179' 45984
  'P180' 45984
  'P181' 45984
  'P182' 45984
  'P183' 45984
  'P184' 45984
  'P185' 45985
  'P186' 45985
  'P187' 45985
  'P188' 45984
  'P189' 45985
  'P190' 45984
  'P191' 45984
  'P192' 45984
  'P193' 45984
  'P194' 45984
  'P195' 45984
  'P196' 45984
  'P197' 45984
  'P198' 45984
  'P199' 45984
  'P200' 45984
;
param cli :=
  'P1' 'C7'
  'P2' 'C13'
  'P3' 'C9'
  'P4' 'C4'
  'P5' 'C15'
  'P6' 'C5'
  'P7' 'C7'
  'P8' 'C7'
  'P9' 'C10'
  'P10' 'C3'
  'P11' 'C2'
  'P12' 'C8'
  'P13' 'C1'
  'P14' 'C12'
  'P15' 'C9'
  'P16' 'C5'
  'P17' 'C3'
  'P18' 'C6'
  'P19' 'C7'
  'P20' 'C13'
  'P21' 'C15'
  'P22' 'C1'
  'P23' 'C15'
  'P24' 'C14'
  'P25' 'C6'
  'P26' 'C10'
  'P27' 'C8'
  'P28' 'C12'
  'P29' 'C11'
  'P30' 'C14'
  'P31' 'C6'
  'P32' 'C10'
  'P33' 'C4'
  'P34' 'C14'
  'P35' 'C14'
  'P36' 'C12'
  'P37' 'C2'
  'P38' 'C4'
  'P39' 'C6'
  'P40' 'C6'
  'P41' 'C5'
  'P42' 'C10'
  'P43' 'C4'
  'P44' 'C13'
  'P45' 'C4'
  'P46' 'C10'
  'P47' 'C12'
  'P48' 'C12'
  'P49' 'C15'
  'P50' 'C12'
  'P51' 'C15'
  'P52' 'C4'
  'P53' 'C7'
  'P54' 'C5'
  'P55' 'C7'
  'P56' 'C4'
  'P57' 'C12'
  'P58' 'C6'
  'P59' 'C9'
  'P60' 'C4'
  'P61' 'C6'
  'P62' 'C12'
  'P63' 'C14'
  'P64' 'C1'
  'P65' 'C5'
  'P66' 'C5'
  'P67' 'C11'
  'P68' 'C4'
  'P69' 'C11'
  'P70' 'C7'
  'P71' 'C14'
  'P72' 'C13'
  'P73' 'C8'
  'P74' 'C11'
  'P75' 'C1'
  'P76' 'C15'
  'P77' 'C12'
  'P78' 'C3'
  'P79' 'C14'
  'P80' 'C10'
  'P81' 'C13'
  'P82' 'C9'
  'P83' 'C15'
  'P84' 'C13'
  'P85' 'C2'
  'P86' 'C8'
  'P87' 'C5'
  'P88' 'C12'
  'P89' 'C12'
  'P90' 'C14'
  'P91' 'C5'
  'P92' 'C5'
  'P93' 'C1'
  'P94' 'C4'
  'P95' 'C8'
  'P96' 'C2'
  'P97' 'C3'
  'P98' 'C5'
  'P99' 'C1'
  'P100' 'C5'
  'P101' 'C8'
  'P102' 'C5'
  'P103' 'C13'
  'P104' 'C11'
  'P105' 'C11'
  'P106' 'C5'
  'P107' 'C10'
  'P108' 'C2'
  'P109' 'C15'
  'P110' 'C15'
  'P111' 'C3'
  'P112' 'C11'
  'P113' 'C7'
  'P114' 'C10'
  'P115' 'C2'
  'P116' 'C2'
  'P117' 'C2'
  'P118' 'C1'
  'P119' 'C10'
  'P120' 'C1'
  'P121' 'C10'
  'P122' 'C12'
  'P123' 'C1'
  'P124' 'C8'
  'P125' 'C7'
  'P126' 'C5'
  'P127' 'C8'
  'P128' 'C15'
  'P129' 'C15'
  'P130' 'C11'
  'P131' 'C10'
  'P132' 'C7'
  'P133' 'C5'
  'P134' 'C4'
  'P135' 'C6'
  'P136' 'C6'
  'P137' 'C15'
  'P138' 'C8'
  'P139' 'C6'
  'P140' 'C4'
  'P141' 'C8'
  'P142' 'C12'
  'P143' 'C9'
  'P144' 'C1'
  'P145' 'C2'
  'P146' 'C2'
  'P147' 'C15'
  'P148' 'C4'
  'P149' 'C3'
  'P150' 'C7'
  'P151' 'C5'
  'P152' 'C15'
  'P153' 'C4'
  'P154' 'C7'
  'P155' 'C15'
  'P156' 'C7'
  'P157' 'C8'
  'P158' 'C8'
  'P159' 'C2'
  'P160' 'C4'
  'P161' 'C6'
  'P162' 'C12'
  'P163' 'C6'
  'P164' 'C3'
  'P165' 'C6'
  'P166' 'C6'
  'P167' 'C13'
  'P168' 'C10'
  'P169' 'C3'
  'P170' 'C2'
  'P171' 'C6'
  'P172' 'C12'
  'P173' 'C7'
  'P174' 'C11'
  'P175' 'C5'
  'P176' 'C3'
  'P177' 'C6'
  'P178' 'C3'
  'P179' 'C9'
  'P180' 'C15'
  'P181' 'C1'
  'P182' 'C9'
  'P183' 'C7'
  'P184' 'C12'
  'P185' 'C9'
  'P186' 'C1'
  'P187' 'C8'
  'P188' 'C3'
  'P189' 'C4'
  'P190' 'C10'
  'P191' 'C5'
  'P192' 'C4'
  'P193' 'C9'
  'P194' 'C9'
  'P195' 'C11'
  'P196' 'C4'
  'P197' 'C4'
  'P198' 'C6'
  'P199' 'C6'
  'P200' 'C2'
;
